c Circuit-CNF generated by TG-PRO v1.0 (c) Huan Chen and Joao Marques-Silva
p cnf 287 802
-1 2 3 0
1 2 -3 0
-1 -2 -3 0
1 -2 3 0
-4 5 6 0
4 5 -6 0
-4 -5 -6 0
4 -5 6 0
-7 8 9 0
7 8 -9 0
-7 -8 -9 0
7 -8 9 0
-10 11 12 0
10 11 -12 0
-10 -11 -12 0
10 -11 12 0
-13 14 15 0
13 14 -15 0
-13 -14 -15 0
13 -14 15 0
-16 17 18 0
16 17 -18 0
-16 -17 -18 0
16 -17 18 0
-19 20 21 0
19 20 -21 0
-19 -20 -21 0
19 -20 21 0
-22 23 24 0
22 23 -24 0
-22 -23 -24 0
22 -23 24 0
-25 26 27 0
25 26 -27 0
-25 -26 -27 0
25 -26 27 0
-28 29 30 0
28 29 -30 0
-28 -29 -30 0
28 -29 30 0
-31 32 33 0
31 32 -33 0
-31 -32 -33 0
31 -32 33 0
-34 35 36 0
34 35 -36 0
-34 -35 -36 0
34 -35 36 0
-37 38 39 0
37 38 -39 0
-37 -38 -39 0
37 -38 39 0
-40 41 42 0
40 41 -42 0
-40 -41 -42 0
40 -41 42 0
-43 44 45 0
43 44 -45 0
-43 -44 -45 0
43 -44 45 0
-46 47 48 0
46 47 -48 0
-46 -47 -48 0
46 -47 48 0
-49 50 51 0
49 50 -51 0
-49 -50 -51 0
49 -50 51 0
-52 53 54 0
52 53 -54 0
-52 -53 -54 0
52 -53 54 0
-55 56 57 0
55 56 -57 0
-55 -56 -57 0
55 -56 57 0
-58 59 60 0
58 59 -60 0
-58 -59 -60 0
58 -59 60 0
-61 62 63 0
61 62 -63 0
-61 -62 -63 0
61 -62 63 0
-64 65 66 0
64 65 -66 0
-64 -65 -66 0
64 -65 66 0
-67 68 69 0
67 68 -69 0
-67 -68 -69 0
67 -68 69 0
-70 71 72 0
70 71 -72 0
-70 -71 -72 0
70 -71 72 0
-73 74 75 0
73 74 -75 0
-73 -74 -75 0
73 -74 75 0
-76 77 78 0
76 77 -78 0
-76 -77 -78 0
76 -77 78 0
-79 80 81 0
79 80 -81 0
-79 -80 -81 0
79 -80 81 0
-82 83 84 0
82 83 -84 0
-82 -83 -84 0
82 -83 84 0
-85 86 87 0
85 86 -87 0
-85 -86 -87 0
85 -86 87 0
-88 89 90 0
88 89 -90 0
-88 -89 -90 0
88 -89 90 0
-91 92 93 0
91 92 -93 0
-91 -92 -93 0
91 -92 93 0
-94 95 96 0
94 95 -96 0
-94 -95 -96 0
94 -95 96 0
-97 2 5 0
97 2 -5 0
-97 -2 -5 0
97 -2 5 0
-98 8 11 0
98 8 -11 0
-98 -8 -11 0
98 -8 11 0
-99 14 17 0
99 14 -17 0
-99 -14 -17 0
99 -14 17 0
-100 20 23 0
100 20 -23 0
-100 -20 -23 0
100 -20 23 0
-101 26 29 0
101 26 -29 0
-101 -26 -29 0
101 -26 29 0
-102 32 35 0
102 32 -35 0
-102 -32 -35 0
102 -32 35 0
-103 38 41 0
103 38 -41 0
-103 -38 -41 0
103 -38 41 0
-104 44 47 0
104 44 -47 0
-104 -44 -47 0
104 -44 47 0
-105 50 53 0
105 50 -53 0
-105 -50 -53 0
105 -50 53 0
-106 56 59 0
106 56 -59 0
-106 -56 -59 0
106 -56 59 0
-107 62 65 0
107 62 -65 0
-107 -62 -65 0
107 -62 65 0
-108 68 71 0
108 68 -71 0
-108 -68 -71 0
108 -68 71 0
-109 74 77 0
109 74 -77 0
-109 -74 -77 0
109 -74 77 0
-110 80 83 0
110 80 -83 0
-110 -80 -83 0
110 -80 83 0
-111 86 89 0
111 86 -89 0
-111 -86 -89 0
111 -86 89 0
-112 92 95 0
112 92 -95 0
-112 -92 -95 0
112 -92 95 0
-113 114 0
-113 115 0
113 -114 -115 0
-116 117 0
-116 115 0
116 -117 -115 0
-118 119 0
-118 115 0
118 -119 -115 0
-120 121 0
-120 115 0
120 -121 -115 0
-122 123 0
-122 115 0
122 -123 -115 0
-124 125 0
-124 115 0
124 -125 -115 0
-126 127 0
-126 115 0
126 -127 -115 0
-128 129 0
-128 115 0
128 -129 -115 0
-130 2 14 0
130 2 -14 0
-130 -2 -14 0
130 -2 14 0
-131 26 38 0
131 26 -38 0
-131 -26 -38 0
131 -26 38 0
-132 5 17 0
132 5 -17 0
-132 -5 -17 0
132 -5 17 0
-133 29 41 0
133 29 -41 0
-133 -29 -41 0
133 -29 41 0
-134 8 20 0
134 8 -20 0
-134 -8 -20 0
134 -8 20 0
-135 32 44 0
135 32 -44 0
-135 -32 -44 0
135 -32 44 0
-136 11 23 0
136 11 -23 0
-136 -11 -23 0
136 -11 23 0
-137 35 47 0
137 35 -47 0
-137 -35 -47 0
137 -35 47 0
-138 50 62 0
138 50 -62 0
-138 -50 -62 0
138 -50 62 0
-139 74 86 0
139 74 -86 0
-139 -74 -86 0
139 -74 86 0
-140 53 65 0
140 53 -65 0
-140 -53 -65 0
140 -53 65 0
-141 77 89 0
141 77 -89 0
-141 -77 -89 0
141 -77 89 0
-142 56 68 0
142 56 -68 0
-142 -56 -68 0
142 -56 68 0
-143 80 92 0
143 80 -92 0
-143 -80 -92 0
143 -80 92 0
-144 59 71 0
144 59 -71 0
-144 -59 -71 0
144 -59 71 0
-145 83 95 0
145 83 -95 0
-145 -83 -95 0
145 -83 95 0
-146 97 98 0
146 97 -98 0
-146 -97 -98 0
146 -97 98 0
-147 99 100 0
147 99 -100 0
-147 -99 -100 0
147 -99 100 0
-148 101 102 0
148 101 -102 0
-148 -101 -102 0
148 -101 102 0
-149 103 104 0
149 103 -104 0
-149 -103 -104 0
149 -103 104 0
-150 105 106 0
150 105 -106 0
-150 -105 -106 0
150 -105 106 0
-151 107 108 0
151 107 -108 0
-151 -107 -108 0
151 -107 108 0
-152 109 110 0
152 109 -110 0
-152 -109 -110 0
152 -109 110 0
-153 111 112 0
153 111 -112 0
-153 -111 -112 0
153 -111 112 0
-154 130 131 0
154 130 -131 0
-154 -130 -131 0
154 -130 131 0
-155 132 133 0
155 132 -133 0
-155 -132 -133 0
155 -132 133 0
-156 134 135 0
156 134 -135 0
-156 -134 -135 0
156 -134 135 0
-157 136 137 0
157 136 -137 0
-157 -136 -137 0
157 -136 137 0
-158 138 139 0
158 138 -139 0
-158 -138 -139 0
158 -138 139 0
-159 140 141 0
159 140 -141 0
-159 -140 -141 0
159 -140 141 0
-160 142 143 0
160 142 -143 0
-160 -142 -143 0
160 -142 143 0
-161 144 145 0
161 144 -145 0
-161 -144 -145 0
161 -144 145 0
-162 146 147 0
162 146 -147 0
-162 -146 -147 0
162 -146 147 0
-163 148 149 0
163 148 -149 0
-163 -148 -149 0
163 -148 149 0
-164 146 148 0
164 146 -148 0
-164 -146 -148 0
164 -146 148 0
-165 147 149 0
165 147 -149 0
-165 -147 -149 0
165 -147 149 0
-166 150 151 0
166 150 -151 0
-166 -150 -151 0
166 -150 151 0
-167 152 153 0
167 152 -153 0
-167 -152 -153 0
167 -152 153 0
-168 150 152 0
168 150 -152 0
-168 -150 -152 0
168 -150 152 0
-169 151 153 0
169 151 -153 0
-169 -151 -153 0
169 -151 153 0
-170 113 166 0
170 113 -166 0
-170 -113 -166 0
170 -113 166 0
-171 116 167 0
171 116 -167 0
-171 -116 -167 0
171 -116 167 0
-172 118 168 0
172 118 -168 0
-172 -118 -168 0
172 -118 168 0
-173 120 169 0
173 120 -169 0
-173 -120 -169 0
173 -120 169 0
-174 122 162 0
174 122 -162 0
-174 -122 -162 0
174 -122 162 0
-175 124 163 0
175 124 -163 0
-175 -124 -163 0
175 -124 163 0
-176 126 164 0
176 126 -164 0
-176 -126 -164 0
176 -126 164 0
-177 128 165 0
177 128 -165 0
-177 -128 -165 0
177 -128 165 0
-178 154 170 0
178 154 -170 0
-178 -154 -170 0
178 -154 170 0
-179 155 171 0
179 155 -171 0
-179 -155 -171 0
179 -155 171 0
-180 156 172 0
180 156 -172 0
-180 -156 -172 0
180 -156 172 0
-181 157 173 0
181 157 -173 0
-181 -157 -173 0
181 -157 173 0
-182 158 174 0
182 158 -174 0
-182 -158 -174 0
182 -158 174 0
-183 159 175 0
183 159 -175 0
-183 -159 -175 0
183 -159 175 0
-184 160 176 0
184 160 -176 0
-184 -160 -176 0
184 -160 176 0
-185 161 177 0
185 161 -177 0
-185 -161 -177 0
185 -161 177 0
186 178 0
-186 -178 0
187 179 0
-187 -179 0
188 180 0
-188 -180 0
189 178 0
-189 -178 0
190 179 0
-190 -179 0
191 181 0
-191 -181 0
192 178 0
-192 -178 0
193 180 0
-193 -180 0
194 181 0
-194 -181 0
195 179 0
-195 -179 0
196 180 0
-196 -180 0
197 181 0
-197 -181 0
198 183 0
-198 -183 0
199 185 0
-199 -185 0
200 183 0
-200 -183 0
201 184 0
-201 -184 0
202 182 0
-202 -182 0
203 185 0
-203 -185 0
204 182 0
-204 -182 0
205 184 0
-205 -184 0
206 182 0
-206 -182 0
207 183 0
-207 -183 0
208 184 0
-208 -184 0
209 182 0
-209 -182 0
210 183 0
-210 -183 0
211 185 0
-211 -185 0
212 182 0
-212 -182 0
213 184 0
-213 -184 0
214 185 0
-214 -185 0
215 183 0
-215 -183 0
216 184 0
-216 -184 0
217 185 0
-217 -185 0
218 179 0
-218 -179 0
219 181 0
-219 -181 0
220 179 0
-220 -179 0
221 180 0
-221 -180 0
222 178 0
-222 -178 0
223 181 0
-223 -181 0
224 178 0
-224 -178 0
225 180 0
-225 -180 0
-226 227 0
-226 181 0
226 -227 -181 0
-228 229 0
-228 191 0
228 -229 -191 0
-230 231 0
-230 194 0
230 -231 -194 0
-232 233 0
-232 197 0
232 -233 -197 0
-234 235 0
-234 185 0
234 -235 -185 0
-236 237 0
-236 211 0
236 -237 -211 0
-238 239 0
-238 214 0
238 -239 -214 0
-240 241 0
-240 217 0
240 -241 -217 0
242 -243 0
242 -232 0
-242 243 232 0
244 -245 0
244 -240 0
-244 245 240 0
-246 247 0
-246 242 0
246 -247 -242 0
-248 249 0
-248 242 0
248 -249 -242 0
-250 251 0
-250 242 0
250 -251 -242 0
-252 253 0
-252 242 0
252 -253 -242 0
-254 255 0
-254 244 0
254 -255 -244 0
-256 257 0
-256 244 0
256 -257 -244 0
-258 259 0
-258 244 0
258 -259 -244 0
-260 261 0
-260 244 0
260 -261 -244 0
-3 178 0
-3 246 0
3 -178 -246 0
-6 179 0
-6 246 0
6 -179 -246 0
-9 180 0
-9 246 0
9 -180 -246 0
-12 181 0
-12 246 0
12 -181 -246 0
-15 178 0
-15 248 0
15 -178 -248 0
-18 179 0
-18 248 0
18 -179 -248 0
-21 180 0
-21 248 0
21 -180 -248 0
-24 181 0
-24 248 0
24 -181 -248 0
-27 178 0
-27 250 0
27 -178 -250 0
-30 179 0
-30 250 0
30 -179 -250 0
-33 180 0
-33 250 0
33 -180 -250 0
-36 181 0
-36 250 0
36 -181 -250 0
-39 178 0
-39 252 0
39 -178 -252 0
-42 179 0
-42 252 0
42 -179 -252 0
-45 180 0
-45 252 0
45 -180 -252 0
-48 181 0
-48 252 0
48 -181 -252 0
-51 182 0
-51 254 0
51 -182 -254 0
-54 183 0
-54 254 0
54 -183 -254 0
-57 184 0
-57 254 0
57 -184 -254 0
-60 185 0
-60 254 0
60 -185 -254 0
-63 182 0
-63 256 0
63 -182 -256 0
-66 183 0
-66 256 0
66 -183 -256 0
-69 184 0
-69 256 0
69 -184 -256 0
-72 185 0
-72 256 0
72 -185 -256 0
-75 182 0
-75 258 0
75 -182 -258 0
-78 183 0
-78 258 0
78 -183 -258 0
-81 184 0
-81 258 0
81 -184 -258 0
-84 185 0
-84 258 0
84 -185 -258 0
-87 182 0
-87 260 0
87 -182 -260 0
-90 183 0
-90 260 0
90 -183 -260 0
-93 184 0
-93 260 0
93 -184 -260 0
-96 185 0
-96 260 0
96 -185 -260 0
-262 186 0
-262 187 0
262 -186 -187 0
-227 262 0
-227 188 0
227 -262 -188 0
-263 189 0
-263 190 0
263 -189 -190 0
-229 263 0
-229 180 0
229 -263 -180 0
-264 192 0
-264 179 0
264 -192 -179 0
-231 264 0
-231 193 0
231 -264 -193 0
-265 178 0
-265 195 0
265 -178 -195 0
-233 265 0
-233 196 0
233 -265 -196 0
-266 206 0
-266 207 0
266 -206 -207 0
-235 266 0
-235 208 0
235 -266 -208 0
-267 209 0
-267 210 0
267 -209 -210 0
-237 267 0
-237 184 0
237 -267 -184 0
-268 212 0
-268 183 0
268 -212 -183 0
-239 268 0
-239 213 0
239 -268 -213 0
-269 182 0
-269 215 0
269 -182 -215 0
-241 269 0
-241 216 0
241 -269 -216 0
270 -226 0
270 -228 0
-270 226 228 0
243 -270 0
243 -230 0
-243 270 230 0
271 -234 0
271 -236 0
-271 234 236 0
245 -271 0
245 -238 0
-245 271 238 0
-272 182 0
-272 198 0
272 -182 -198 0
-273 272 0
-273 184 0
273 -272 -184 0
-247 273 0
-247 199 0
247 -273 -199 0
-274 182 0
-274 200 0
274 -182 -200 0
-275 274 0
-275 201 0
275 -274 -201 0
-249 275 0
-249 185 0
249 -275 -185 0
-276 202 0
-276 183 0
276 -202 -183 0
-277 276 0
-277 184 0
277 -276 -184 0
-251 277 0
-251 203 0
251 -277 -203 0
-278 204 0
-278 183 0
278 -204 -183 0
-279 278 0
-279 205 0
279 -278 -205 0
-253 279 0
-253 185 0
253 -279 -185 0
-280 178 0
-280 218 0
280 -178 -218 0
-281 280 0
-281 180 0
281 -280 -180 0
-255 281 0
-255 219 0
255 -281 -219 0
-282 178 0
-282 220 0
282 -178 -220 0
-283 282 0
-283 221 0
283 -282 -221 0
-257 283 0
-257 181 0
257 -283 -181 0
-284 222 0
-284 179 0
284 -222 -179 0
-285 284 0
-285 180 0
285 -284 -180 0
-259 285 0
-259 223 0
259 -285 -223 0
-286 224 0
-286 179 0
286 -224 -179 0
-287 286 0
-287 225 0
287 -286 -225 0
-261 287 0
-261 181 0
261 -287 -181 0
